results_rootrelaxation/bin018_070_035.srr.sol
solution status: optimal solution found
objective value:                     1.86423314897979
_var2936_                           0.109812548016358 	(obj:0)
_var3010_                          0.0173240472844901 	(obj:0)
_var3124_                           0.358983864199017 	(obj:0)
_var3137_                          0.0719166018049075 	(obj:0)
_var3194_                           0.133631134661894 	(obj:0)
_var3204_                          0.0572960617543012 	(obj:0)
_var3208_                           0.233141348286079 	(obj:0)
_var3210_                           0.190467506472557 	(obj:0)
_var3218_                           0.123560625112089 	(obj:0)
_var3240_                          0.0228276194389295 	(obj:0)
_var3251_                           0.230579131814044 	(obj:0)
_var3257_                          0.0218336284300393 	(obj:0)
_var3284_                            0.10742324023886 	(obj:0)
_var3285_                           0.233928640809756 	(obj:0)
_var3308_                          0.0216656394138361 	(obj:0)
_var3311_                          0.0914614278860008 	(obj:0)
_var3314_                          0.0413905257218604 	(obj:1)
_var3319_                            0.11028687700283 	(obj:0)
_var3335_                           0.422518126074842 	(obj:0)
_var3338_                           0.132315420688532 	(obj:0)
_var3339_                           0.334101619099736 	(obj:0)
_var3342_                           0.210963654352425 	(obj:0)
_var3349_                          0.0938122901772328 	(obj:0)
_var3351_                           0.061835388954928 	(obj:0)
_var3376_                          0.0137770192033784 	(obj:0)
_var3382_                           0.018496598618397 	(obj:1)
_var3388_                           0.498172147512308 	(obj:0)
_var3392_                           0.123121189844125 	(obj:2)
_var3396_                           0.320341350801113 	(obj:0)
_var3408_                           0.285242349714209 	(obj:0)
_var3417_                          0.0964785638455759 	(obj:0)
_var3421_                          0.0507216916129167 	(obj:0)
_var3429_                           0.264454764889646 	(obj:0)
_var3431_                          0.0761620202224701 	(obj:0)
_var3433_                         0.00352539349567269 	(obj:1)
_var3438_                           0.369676413077409 	(obj:0)
_var3439_                          0.0776169250949711 	(obj:0)
_var3443_                           0.471661056913456 	(obj:0)
_var3448_                           0.206772088413771 	(obj:0)
_var3450_                           0.071560201107811 	(obj:1)
_var3454_                           0.128385269657529 	(obj:0)
_var3459_                           0.143129329631911 	(obj:0)
_var3465_                           0.131099348200217 	(obj:0)
_var3466_                           0.167540725517205 	(obj:0)
_var3467_                           0.165977011759064 	(obj:1)
_var3469_                          0.0805380261017041 	(obj:0)
_var3471_                          0.0211712477391364 	(obj:0)
_var3473_                          0.0667170297737211 	(obj:0)
_var3475_                           0.125761809189867 	(obj:0)
_var3478_                           0.173894454085012 	(obj:0)
_var3480_                             0.0380246497963 	(obj:0)
_var3486_                           0.114097707835471 	(obj:0)
_var3492_                          0.0598843165238412 	(obj:0)
_var3504_                           0.197663387977044 	(obj:0)
_var3509_                           0.040062596547182 	(obj:0)
_var3511_                          0.0637175858893611 	(obj:0)
_var3512_                          0.0843252304791285 	(obj:0)
_var3513_                           0.202129039994857 	(obj:0)
_var3515_                           0.261472743866117 	(obj:0)
_var3518_                           0.135230438093031 	(obj:0)
_var3524_                          0.0683368758617015 	(obj:0)
_var3525_                           0.208738927813947 	(obj:0)
_var3534_                           0.165756898150977 	(obj:1)
_var3535_                           0.107659768773681 	(obj:0)
_var3536_                          0.0970647255199782 	(obj:0)
_var3537_                           0.134911210965384 	(obj:0)
_var3539_                           0.102083397379145 	(obj:0)
_var3543_                           0.160699636814946 	(obj:1)
_var3549_                           0.239254036614069 	(obj:0)
_var3551_                          0.0484186341960251 	(obj:0)
_var3552_                           0.319415647327311 	(obj:0)
_var3555_                         0.00480724568304414 	(obj:0)
_var3557_                          0.0215091216475878 	(obj:1)
_var3563_                          0.0196662581413724 	(obj:0)
_var3566_                         0.00387224281727516 	(obj:0)
_var3569_                           0.123044430862933 	(obj:0)
_var3572_                          0.0263018722783832 	(obj:0)
_var3573_                          0.0377970006809008 	(obj:0)
_var3574_                            0.16603386404184 	(obj:0)
_var3577_                           0.064320354477933 	(obj:0)
_var3578_                           0.239730861437342 	(obj:0)
_var3585_                           0.259375976961124 	(obj:0)
_var3586_                          0.0919748503163879 	(obj:0)
_var3587_                          0.0491429308386143 	(obj:0)
_var3594_                           0.173889534406685 	(obj:0)
_var3595_                           0.122536948044195 	(obj:0)
_var3598_                           0.170494116412684 	(obj:0)
_var3602_                           0.161821107488706 	(obj:1)
_var3607_                         0.00262346046766193 	(obj:0)
_var3616_                           0.241556278084313 	(obj:0)
_var3620_                           0.122537763990836 	(obj:0)
_var3621_                          0.0547672750964857 	(obj:1)
_var3625_                          0.0474816634589055 	(obj:0)
_var3626_                           0.128377038195739 	(obj:0)
_var3628_                          0.0266316587156334 	(obj:0)
_var3629_                          0.0819277392366979 	(obj:0)
_var3632_                         0.00564541488021158 	(obj:0)
_var3633_                           0.292609100046604 	(obj:0)
_var3635_                           0.049727268632268 	(obj:1)
_var3636_                            0.20544192738502 	(obj:0)
_var3639_                            0.14197788491797 	(obj:1)
_var3640_                          0.0559786918892019 	(obj:0)
_var3641_                          0.0262886251445414 	(obj:0)
_var3643_                          0.0625077769915029 	(obj:0)
_var3644_                          0.0188719340774627 	(obj:0)
_var3646_                            0.19401373060623 	(obj:1)
_var3647_                          0.0275812046304955 	(obj:0)
_var3651_                           0.201148104132368 	(obj:0)
_var3655_                            0.13545314353167 	(obj:0)
_var3656_                          0.0893589973513242 	(obj:0)
_var3661_                           0.213521815089636 	(obj:1)
_var3663_                          0.0402323854457142 	(obj:0)
_var3664_                            0.14275063439252 	(obj:0)
_var3669_                          0.0253595498911914 	(obj:0)
_var3670_                         0.00417939873418973 	(obj:0)
_var3671_                          0.0722121664797021 	(obj:0)
_var3673_                           0.102049271610433 	(obj:0)
_var3675_                           0.285207743976873 	(obj:0)
_var3678_                          0.0736957974739743 	(obj:0)
_var3682_                         0.00526407981340382 	(obj:1)
_var3683_                           0.114310693909594 	(obj:0)
_var3686_                          0.0332266195107069 	(obj:0)
_var3690_                           0.189742849853512 	(obj:0)
_var3691_                           0.149482938207566 	(obj:0)
_var3692_                          0.0685009531336876 	(obj:0)
_var3695_                          0.0315297624580166 	(obj:0)
_var3697_                           0.134433834178177 	(obj:0)
_var3698_                          0.0630047604967459 	(obj:0)
_var3699_                          0.0222243948801699 	(obj:1)
_var3701_                           0.201581851772199 	(obj:0)
_var3702_                           0.176421464858947 	(obj:0)
_var3706_                          0.0667643066825701 	(obj:0)
_var3709_                          0.0119230924205251 	(obj:0)
_var3710_                          0.0167293301694768 	(obj:0)
_var3711_                           0.101874179058677 	(obj:1)
_var3712_                           0.033306606280853 	(obj:0)
_var3713_                          0.0228725924984136 	(obj:0)
_var3717_                          0.0238836463916761 	(obj:1)
_var3718_                          0.0297077535882136 	(obj:0)
_var3720_                          0.0159172712651402 	(obj:0)
_var3722_                          0.0186900019729077 	(obj:0)
_var3723_                          0.0212930157774541 	(obj:0)
_var3724_                          0.0470694424115892 	(obj:0)
_var3725_                          0.0274792112992826 	(obj:0)
_var3726_                          0.0307127358784727 	(obj:0)
